results/run1_smt/16_out.smt2
sat
(model
(declare-sort BoundSet 0)
; cardinality of UnboundSet is 2
(declare-sort UnboundSet 0)
; rep: @uc_UnboundSet_0
; rep: @uc_UnboundSet_1
(define-fun b () UnboundSet @uc_UnboundSet_0)
(define-fun c () UnboundSet @uc_UnboundSet_0)
(define-fun e () UnboundSet @uc_UnboundSet_0)
(define-fun d () UnboundSet @uc_UnboundSet_0)
(define-fun a () UnboundSet @uc_UnboundSet_1)
(define-fun IsGiven ((BOUND_VARIABLE_360 BoundSet) (BOUND_VARIABLE_361 UnboundSet)) Bool false)
(define-fun IsInLimbo ((BOUND_VARIABLE_369 UnboundSet)) Bool false)
(define-fun IsInHeaven ((BOUND_VARIABLE_369 UnboundSet)) Bool false)
(define-fun IsLivedLike ((BOUND_VARIABLE_360 BoundSet) (BOUND_VARIABLE_361 UnboundSet)) Bool false)
(define-fun IsGood ((BOUND_VARIABLE_386 BoundSet)) Bool false)
(define-fun IsBeautiful ((BOUND_VARIABLE_369 UnboundSet)) Bool false)
(define-fun IsAPlace ((BOUND_VARIABLE_386 BoundSet)) Bool false)
(define-fun ~IsLiked ((BOUND_VARIABLE_403 BoundSet) (BOUND_VARIABLE_404 BoundSet)) Bool false)
(define-fun IsHappy ((BOUND_VARIABLE_369 UnboundSet)) Bool false)
(define-fun IsWornBy ((BOUND_VARIABLE_369 UnboundSet)) Bool false)
(define-fun IsPartOfFamily ((BOUND_VARIABLE_386 BoundSet)) Bool false)
(define-fun IsDone ((BOUND_VARIABLE_386 BoundSet)) Bool false)
(define-fun IsSpooky ((BOUND_VARIABLE_386 BoundSet)) Bool false)
(define-fun IsMorallyJustifiable ((BOUND_VARIABLE_386 BoundSet)) Bool false)
(define-fun IsTeacher ((BOUND_VARIABLE_386 BoundSet)) Bool false)
(define-fun IsBestClass ((BOUND_VARIABLE_386 BoundSet)) Bool false)
(define-fun IsBest ((BOUND_VARIABLE_386 BoundSet)) Bool false)
(define-fun IsClass ((BOUND_VARIABLE_386 BoundSet)) Bool false)
(define-fun IsBlonde ((BOUND_VARIABLE_369 UnboundSet)) Bool false)
(define-fun IsThere ((BOUND_VARIABLE_369 UnboundSet)) Bool false)
(define-fun IsSale ((BOUND_VARIABLE_369 UnboundSet)) Bool false)
(define-fun ~IsBelieveIn ((BOUND_VARIABLE_369 UnboundSet)) Bool false)
(define-fun IsBurnInHell ((BOUND_VARIABLE_369 UnboundSet)) Bool false)
(define-fun IsForever ((BOUND_VARIABLE_369 UnboundSet)) Bool false)
(define-fun IsGoingToHaveLunch ((BOUND_VARIABLE_403 BoundSet) (BOUND_VARIABLE_404 BoundSet)) Bool false)
(define-fun IsBelieve ((BOUND_VARIABLE_386 BoundSet)) Bool false)
(define-fun IsDitching ((BOUND_VARIABLE_386 BoundSet)) Bool false)
(define-fun IsNew ((BOUND_VARIABLE_386 BoundSet)) Bool false)
(define-fun IsCaught ((BOUND_VARIABLE_360 BoundSet) (BOUND_VARIABLE_361 UnboundSet)) Bool false)
(define-fun IsThrown ((BOUND_VARIABLE_486 UnboundSet) (BOUND_VARIABLE_487 UnboundSet)) Bool false)
(define-fun IsAt ((BOUND_VARIABLE_500 UnboundSet) (BOUND_VARIABLE_501 BoundSet)) Bool false)
(define-fun IsPutting ((BOUND_VARIABLE_403 BoundSet) (BOUND_VARIABLE_404 BoundSet)) Bool false)
(define-fun IsUnder ((BOUND_VARIABLE_403 BoundSet) (BOUND_VARIABLE_404 BoundSet)) Bool false)
(define-fun IsHispanic ((BOUND_VARIABLE_386 BoundSet)) Bool false)
(define-fun WearsRedPlaidShirt ((BOUND_VARIABLE_386 BoundSet)) Bool false)
(define-fun IsWearing ((BOUND_VARIABLE_386 BoundSet)) Bool false)
(define-fun IsSewing ((BOUND_VARIABLE_386 BoundSet)) Bool false)
(define-fun IsAnArticleOfClothing ((BOUND_VARIABLE_386 BoundSet)) Bool false)
(define-fun IsWalkedDown ((BOUND_VARIABLE_360 BoundSet) (BOUND_VARIABLE_361 UnboundSet)) Bool false)
(define-fun IsOutside ((BOUND_VARIABLE_386 BoundSet)) Bool false)
(define-fun IsRunTowards ((BOUND_VARIABLE_403 BoundSet) (BOUND_VARIABLE_404 BoundSet)) Bool false)
(define-fun IsNoShirt ((BOUND_VARIABLE_386 BoundSet)) Bool false)
(define-fun IsTampering ((BOUND_VARIABLE_386 BoundSet)) Bool false)
(define-fun IsTamperedWith ((BOUND_VARIABLE_386 BoundSet)) Bool false)
(define-fun IsMetal ((BOUND_VARIABLE_386 BoundSet)) Bool false)
(define-fun IsInGlasses ((BOUND_VARIABLE_369 UnboundSet)) Bool false)
(define-fun IsSmiling ((BOUND_VARIABLE_369 UnboundSet)) Bool false)
)
