results/run1_smt/16_out.txt
sat
(model
(declare-sort BoundSet 0)
; cardinality of UnboundSet is 2
(declare-sort UnboundSet 0)
; rep: @uc_UnboundSet_0
; rep: @uc_UnboundSet_1
(define-fun a () UnboundSet @uc_UnboundSet_0)
(define-fun c () UnboundSet @uc_UnboundSet_0)
(define-fun d () UnboundSet @uc_UnboundSet_1)
(define-fun IsInGlasses ((BOUND_VARIABLE_300 UnboundSet)) Bool false)
(define-fun IsSmiling ((BOUND_VARIABLE_300 UnboundSet)) Bool false)
)
